nK = 1850;
nT = 8;
nI = 21;
L = 35;
TT = 380;
np = 1;
nc = 3;
b = [48, 42, 55, 25, 42, 49, 47, 39, 32, 23, 55, 60, 67, 25, 64, 43, 68, 29, 57, 25, 40];
d = [76, 122, 108, 142, 143, 135, 74, 111, 132, 135, 138, 138, 108, 107, 123, 129, 134, 70, 107, 145, 125];
m = [2.4, 1.8, 1.4, 1.4, 2, 1.2, 1.6, 1.7, 1.4, 1, 1.3, 2.4, 2.3, 1.6, 1.4, 2.3, 2, 1.4, 1.9, 1.9, 1.7];
pt = [0.23, 0.25, 0.35, 0.22, 0.3, 0.34, 0.2, 0.21];
st = [10.12, 13.25, 14.35, 10.56, 15.3, 16.66, 10, 11.76];
arc = {<1, 0, 1, 1, 0, 0, 0, [1, 1, 1, 1, 1, 1, 1, 1]>, <2, 1, 2, 1, 0, 0, 0, [1, 1, 1, 1, 1, 1, 1, 1]>, <3, 2, 3, 1, 0, 0, 0, [1, 1, 1, 1, 1, 1, 1, 1]>, <4, 3, 4, 1, 0, 0, 0, [1, 1, 1, 1, 1, 1, 1, 1]>, <5, 4, 5, 1, 0, 0, 0, [1, 1, 1, 1, 1, 1, 1, 1]>, <6, 5, 6, 1, 0, 0, 0, [1, 1, 1, 1, 1, 1, 1, 1]>, <7, 6, 7, 1, 0, 0, 0, [1, 1, 1, 1, 1, 1, 1, 1]>, <8, 7, 8, 1, 0, 0, 0, [1, 1, 1, 1, 1, 1, 1, 1]>, <9, 8, 9, 1, 0, 0, 0, [1, 1, 1, 1, 1, 1, 1, 1]>, <10, 9, 10, 1, 0, 0, 0, [1, 1, 1, 1, 1, 1, 1, 1]>, <11, 10, 11, 1, 0, 0, 0, [1, 1, 1, 1, 1, 1, 1, 1]>, <12, 11, 12, 1, 0, 0, 0, [1, 1, 1, 1, 1, 1, 1, 1]>, <13, 12, 13, 1, 0, 0, 0, [1, 1, 1, 1, 1, 1, 1, 1]>, <14, 13, 14, 1, 0, 0, 0, [1, 1, 1, 1, 1, 1, 1, 1]>, <15, 14, 15, 1, 0, 0, 0, [1, 1, 1, 1, 1, 1, 1, 1]>, <16, 15, 16, 1, 0, 0, 0, [1, 1, 1, 1, 1, 1, 1, 1]>, <17, 16, 17, 1, 0, 0, 0, [1, 1, 1, 1, 1, 1, 1, 1]>, <18, 17, 18, 1, 0, 0, 0, [1, 1, 1, 1, 1, 1, 1, 1]>, <19, 18, 19, 1, 0, 0, 0, [1, 1, 1, 1, 1, 1, 1, 1]>, <20, 19, 20, 1, 0, 0, 0, [1, 1, 1, 1, 1, 1, 1, 1]>, <21, 20, 21, 1, 0, 0, 0, [1, 1, 1, 1, 1, 1, 1, 1]>, <22, 21, 22, 1, 0, 0, 0, [1, 1, 1, 1, 1, 1, 1, 1]>, <23, 22, 23, 1, 0, 0, 0, [1, 1, 1, 1, 1, 1, 1, 1]>, <24, 23, 24, 1, 0, 0, 0, [1, 1, 1, 1, 1, 1, 1, 1]>, <25, 24, 25, 1, 0, 0, 0, [1, 1, 1, 1, 1, 1, 1, 1]>, <26, 25, 26, 1, 0, 0, 0, [1, 1, 1, 1, 1, 1, 1, 1]>, <27, 26, 27, 1, 0, 0, 0, [1, 1, 1, 1, 1, 1, 1, 1]>, <28, 27, 28, 1, 0, 0, 0, [1, 1, 1, 1, 1, 1, 1, 1]>, <29, 28, 29, 1, 0, 0, 0, [1, 1, 1, 1, 1, 1, 1, 1]>, <30, 29, 30, 1, 0, 0, 0, [1, 1, 1, 1, 1, 1, 1, 1]>, <31, 30, 31, 1, 0, 0, 0, [1, 1, 1, 1, 1, 1, 1, 1]>, <32, 31, 32, 1, 0, 0, 0, [1, 1, 1, 1, 1, 1, 1, 1]>, <33, 32, 33, 1, 0, 0, 0, [1, 1, 1, 1, 1, 1, 1, 1]>, <34, 33, 34, 1, 0, 0, 0, [1, 1, 1, 1, 1, 1, 1, 1]>, <35, 34, 35, 1, 0, 0, 0, [1, 1, 1, 1, 1, 1, 1, 1]>, <36, 5, 15, 10, 1, 0, 1, [0, 1, 1, 0, 0, 0, 0, 0]>, <37, 6, 16, 10, 1, 0, 1, [0, 1, 1, 0, 0, 0, 0, 0]>, <38, 14, 24, 10, 1, 0, 1, [0, 1, 1, 0, 0, 0, 0, 0]>, <39, 15, 25, 10, 1, 0, 1, [0, 1, 1, 0, 0, 0, 0, 0]>, <40, 21, 31, 10, 1, 0, 1, [0, 1, 1, 0, 0, 0, 0, 0]>, <41, 22, 32, 10, 1, 0, 1, [0, 1, 1, 0, 0, 0, 0, 0]>, <42, 23, 33, 10, 1, 0, 1, [0, 1, 1, 0, 0, 0, 0, 0]>, <43, 24, 34, 10, 1, 0, 1, [0, 1, 1, 0, 0, 0, 0, 0]>, <44, 4, 17, 13, 2, 0, 1, [0, 0, 0, 0, 0, 0, 1, 1]>, <45, 5, 18, 13, 2, 0, 1, [0, 0, 0, 0, 0, 0, 1, 1]>, <46, 6, 19, 13, 2, 0, 1, [0, 0, 0, 0, 0, 0, 1, 1]>, <47, 13, 26, 13, 2, 0, 1, [0, 0, 0, 0, 0, 0, 1, 1]>, <48, 14, 27, 13, 2, 0, 1, [0, 0, 0, 0, 0, 0, 1, 1]>, <49, 15, 28, 13, 2, 0, 1, [0, 0, 0, 0, 0, 0, 1, 1]>, <50, 18, 31, 13, 2, 0, 1, [0, 0, 0, 0, 0, 0, 1, 1]>, <51, 19, 32, 13, 2, 0, 1, [0, 0, 0, 0, 0, 0, 1, 1]>, <52, 20, 33, 13, 2, 0, 1, [0, 0, 0, 0, 0, 0, 1, 1]>, <53, 21, 34, 13, 2, 0, 1, [0, 0, 0, 0, 0, 0, 1, 1]>, <54, 22, 35, 13, 2, 0, 1, [0, 0, 0, 0, 0, 0, 1, 1]>, <55, 5, 16, 11, 3, 0, 0, [0, 0, 0, 1, 1, 0, 0, 0]>, <56, 6, 17, 11, 3, 0, 0, [0, 0, 0, 1, 1, 0, 0, 0]>, <57, 14, 25, 11, 3, 0, 0, [0, 0, 0, 1, 1, 0, 0, 0]>, <58, 15, 26, 11, 3, 0, 0, [0, 0, 0, 1, 1, 0, 0, 0]>, <59, 20, 31, 11, 3, 0, 0, [0, 0, 0, 1, 1, 0, 0, 0]>, <60, 21, 32, 11, 3, 0, 0, [0, 0, 0, 1, 1, 0, 0, 0]>, <61, 22, 33, 11, 3, 0, 0, [0, 0, 0, 1, 1, 0, 0, 0]>, <62, 23, 34, 11, 3, 0, 0, [0, 0, 0, 1, 1, 0, 0, 0]>, <63, 24, 35, 11, 3, 0, 0, [0, 0, 0, 1, 1, 0, 0, 0]>, <64, 5, 16, 11, 4, 0, 1, [0, 0, 0, 0, 0, 0, 1, 1]>, <65, 6, 17, 11, 4, 0, 1, [0, 0, 0, 0, 0, 0, 1, 1]>, <66, 14, 25, 11, 4, 0, 1, [0, 0, 0, 0, 0, 0, 1, 1]>, <67, 15, 26, 11, 4, 0, 1, [0, 0, 0, 0, 0, 0, 1, 1]>, <68, 20, 31, 11, 4, 0, 1, [0, 0, 0, 0, 0, 0, 1, 1]>, <69, 21, 32, 11, 4, 0, 1, [0, 0, 0, 0, 0, 0, 1, 1]>, <70, 22, 33, 11, 4, 0, 1, [0, 0, 0, 0, 0, 0, 1, 1]>, <71, 23, 34, 11, 4, 0, 1, [0, 0, 0, 0, 0, 0, 1, 1]>, <72, 24, 35, 11, 4, 0, 1, [0, 0, 0, 0, 0, 0, 1, 1]>, <73, 5, 14, 9, 5, 0, 1, [0, 0, 0, 0, 1, 1, 0, 0]>, <74, 6, 15, 9, 5, 0, 1, [0, 0, 0, 0, 1, 1, 0, 0]>, <75, 14, 23, 9, 5, 0, 1, [0, 0, 0, 0, 1, 1, 0, 0]>, <76, 15, 24, 9, 5, 0, 1, [0, 0, 0, 0, 1, 1, 0, 0]>, <77, 22, 31, 9, 5, 0, 1, [0, 0, 0, 0, 1, 1, 0, 0]>, <78, 23, 32, 9, 5, 0, 1, [0, 0, 0, 0, 1, 1, 0, 0]>, <79, 24, 33, 9, 5, 0, 1, [0, 0, 0, 0, 1, 1, 0, 0]>, <80, 4, 17, 13, 6, 1, 0, [0, 0, 0, 0, 0, 0, 1, 1]>, <81, 5, 18, 13, 6, 1, 0, [0, 0, 0, 0, 0, 0, 1, 1]>, <82, 6, 19, 13, 6, 1, 0, [0, 0, 0, 0, 0, 0, 1, 1]>, <83, 13, 26, 13, 6, 1, 0, [0, 0, 0, 0, 0, 0, 1, 1]>, <84, 14, 27, 13, 6, 1, 0, [0, 0, 0, 0, 0, 0, 1, 1]>, <85, 15, 28, 13, 6, 1, 0, [0, 0, 0, 0, 0, 0, 1, 1]>, <86, 18, 31, 13, 6, 1, 0, [0, 0, 0, 0, 0, 0, 1, 1]>, <87, 19, 32, 13, 6, 1, 0, [0, 0, 0, 0, 0, 0, 1, 1]>, <88, 20, 33, 13, 6, 1, 0, [0, 0, 0, 0, 0, 0, 1, 1]>, <89, 21, 34, 13, 6, 1, 0, [0, 0, 0, 0, 0, 0, 1, 1]>, <90, 22, 35, 13, 6, 1, 0, [0, 0, 0, 0, 0, 0, 1, 1]>, <91, 3, 17, 14, 7, 0, 1, [0, 1, 1, 0, 0, 0, 0, 0]>, <92, 4, 18, 14, 7, 0, 1, [0, 1, 1, 0, 0, 0, 0, 0]>, <93, 5, 19, 14, 7, 0, 1, [0, 1, 1, 0, 0, 0, 0, 0]>, <94, 6, 20, 14, 7, 0, 1, [0, 1, 1, 0, 0, 0, 0, 0]>, <95, 12, 26, 14, 7, 0, 1, [0, 1, 1, 0, 0, 0, 0, 0]>, <96, 13, 27, 14, 7, 0, 1, [0, 1, 1, 0, 0, 0, 0, 0]>, <97, 14, 28, 14, 7, 0, 1, [0, 1, 1, 0, 0, 0, 0, 0]>, <98, 15, 29, 14, 7, 0, 1, [0, 1, 1, 0, 0, 0, 0, 0]>, <99, 17, 31, 14, 7, 0, 1, [0, 1, 1, 0, 0, 0, 0, 0]>, <100, 18, 32, 14, 7, 0, 1, [0, 1, 1, 0, 0, 0, 0, 0]>, <101, 19, 33, 14, 7, 0, 1, [0, 1, 1, 0, 0, 0, 0, 0]>, <102, 20, 34, 14, 7, 0, 1, [0, 1, 1, 0, 0, 0, 0, 0]>, <103, 21, 35, 14, 7, 0, 1, [0, 1, 1, 0, 0, 0, 0, 0]>, <104, 5, 17, 12, 8, 0, 1, [0, 1, 1, 0, 0, 0, 0, 0]>, <105, 6, 18, 12, 8, 0, 1, [0, 1, 1, 0, 0, 0, 0, 0]>, <106, 14, 26, 12, 8, 0, 1, [0, 1, 1, 0, 0, 0, 0, 0]>, <107, 15, 27, 12, 8, 0, 1, [0, 1, 1, 0, 0, 0, 0, 0]>, <108, 19, 31, 12, 8, 0, 1, [0, 1, 1, 0, 0, 0, 0, 0]>, <109, 20, 32, 12, 8, 0, 1, [0, 1, 1, 0, 0, 0, 0, 0]>, <110, 21, 33, 12, 8, 0, 1, [0, 1, 1, 0, 0, 0, 0, 0]>, <111, 22, 34, 12, 8, 0, 1, [0, 1, 1, 0, 0, 0, 0, 0]>, <112, 23, 35, 12, 8, 0, 1, [0, 1, 1, 0, 0, 0, 0, 0]>, <113, 5, 15, 10, 9, 0, 0, [0, 0, 1, 1, 0, 0, 0, 0]>, <114, 6, 16, 10, 9, 0, 0, [0, 0, 1, 1, 0, 0, 0, 0]>, <115, 14, 24, 10, 9, 0, 0, [0, 0, 1, 1, 0, 0, 0, 0]>, <116, 15, 25, 10, 9, 0, 0, [0, 0, 1, 1, 0, 0, 0, 0]>, <117, 21, 31, 10, 9, 0, 0, [0, 0, 1, 1, 0, 0, 0, 0]>, <118, 22, 32, 10, 9, 0, 0, [0, 0, 1, 1, 0, 0, 0, 0]>, <119, 23, 33, 10, 9, 0, 0, [0, 0, 1, 1, 0, 0, 0, 0]>, <120, 24, 34, 10, 9, 0, 0, [0, 0, 1, 1, 0, 0, 0, 0]>, <121, 2, 17, 15, 10, 0, 1, [0, 0, 0, 0, 1, 1, 0, 0]>, <122, 3, 18, 15, 10, 0, 1, [0, 0, 0, 0, 1, 1, 0, 0]>, <123, 4, 19, 15, 10, 0, 1, [0, 0, 0, 0, 1, 1, 0, 0]>, <124, 5, 20, 15, 10, 0, 1, [0, 0, 0, 0, 1, 1, 0, 0]>, <125, 6, 21, 15, 10, 0, 1, [0, 0, 0, 0, 1, 1, 0, 0]>, <126, 11, 26, 15, 10, 0, 1, [0, 0, 0, 0, 1, 1, 0, 0]>, <127, 12, 27, 15, 10, 0, 1, [0, 0, 0, 0, 1, 1, 0, 0]>, <128, 13, 28, 15, 10, 0, 1, [0, 0, 0, 0, 1, 1, 0, 0]>, <129, 14, 29, 15, 10, 0, 1, [0, 0, 0, 0, 1, 1, 0, 0]>, <130, 15, 30, 15, 10, 0, 1, [0, 0, 0, 0, 1, 1, 0, 0]>, <131, 16, 31, 15, 10, 0, 1, [0, 0, 0, 0, 1, 1, 0, 0]>, <132, 17, 32, 15, 10, 0, 1, [0, 0, 0, 0, 1, 1, 0, 0]>, <133, 18, 33, 15, 10, 0, 1, [0, 0, 0, 0, 1, 1, 0, 0]>, <134, 19, 34, 15, 10, 0, 1, [0, 0, 0, 0, 1, 1, 0, 0]>, <135, 20, 35, 15, 10, 0, 1, [0, 0, 0, 0, 1, 1, 0, 0]>, <136, 5, 17, 12, 11, 0, 1, [0, 0, 0, 1, 1, 0, 0, 0]>, <137, 6, 18, 12, 11, 0, 1, [0, 0, 0, 1, 1, 0, 0, 0]>, <138, 14, 26, 12, 11, 0, 1, [0, 0, 0, 1, 1, 0, 0, 0]>, <139, 15, 27, 12, 11, 0, 1, [0, 0, 0, 1, 1, 0, 0, 0]>, <140, 19, 31, 12, 11, 0, 1, [0, 0, 0, 1, 1, 0, 0, 0]>, <141, 20, 32, 12, 11, 0, 1, [0, 0, 0, 1, 1, 0, 0, 0]>, <142, 21, 33, 12, 11, 0, 1, [0, 0, 0, 1, 1, 0, 0, 0]>, <143, 22, 34, 12, 11, 0, 1, [0, 0, 0, 1, 1, 0, 0, 0]>, <144, 23, 35, 12, 11, 0, 1, [0, 0, 0, 1, 1, 0, 0, 0]>, <145, 3, 17, 14, 12, 0, 0, [1, 0, 0, 0, 0, 0, 0, 1]>, <146, 4, 18, 14, 12, 0, 0, [1, 0, 0, 0, 0, 0, 0, 1]>, <147, 5, 19, 14, 12, 0, 0, [1, 0, 0, 0, 0, 0, 0, 1]>, <148, 6, 20, 14, 12, 0, 0, [1, 0, 0, 0, 0, 0, 0, 1]>, <149, 12, 26, 14, 12, 0, 0, [1, 0, 0, 0, 0, 0, 0, 1]>, <150, 13, 27, 14, 12, 0, 0, [1, 0, 0, 0, 0, 0, 0, 1]>, <151, 14, 28, 14, 12, 0, 0, [1, 0, 0, 0, 0, 0, 0, 1]>, <152, 15, 29, 14, 12, 0, 0, [1, 0, 0, 0, 0, 0, 0, 1]>, <153, 17, 31, 14, 12, 0, 0, [1, 0, 0, 0, 0, 0, 0, 1]>, <154, 18, 32, 14, 12, 0, 0, [1, 0, 0, 0, 0, 0, 0, 1]>, <155, 19, 33, 14, 12, 0, 0, [1, 0, 0, 0, 0, 0, 0, 1]>, <156, 20, 34, 14, 12, 0, 0, [1, 0, 0, 0, 0, 0, 0, 1]>, <157, 21, 35, 14, 12, 0, 0, [1, 0, 0, 0, 0, 0, 0, 1]>, <158, 3, 17, 14, 13, 0, 1, [1, 1, 0, 0, 0, 0, 0, 0]>, <159, 4, 18, 14, 13, 0, 1, [1, 1, 0, 0, 0, 0, 0, 0]>, <160, 5, 19, 14, 13, 0, 1, [1, 1, 0, 0, 0, 0, 0, 0]>, <161, 6, 20, 14, 13, 0, 1, [1, 1, 0, 0, 0, 0, 0, 0]>, <162, 12, 26, 14, 13, 0, 1, [1, 1, 0, 0, 0, 0, 0, 0]>, <163, 13, 27, 14, 13, 0, 1, [1, 1, 0, 0, 0, 0, 0, 0]>, <164, 14, 28, 14, 13, 0, 1, [1, 1, 0, 0, 0, 0, 0, 0]>, <165, 15, 29, 14, 13, 0, 1, [1, 1, 0, 0, 0, 0, 0, 0]>, <166, 17, 31, 14, 13, 0, 1, [1, 1, 0, 0, 0, 0, 0, 0]>, <167, 18, 32, 14, 13, 0, 1, [1, 1, 0, 0, 0, 0, 0, 0]>, <168, 19, 33, 14, 13, 0, 1, [1, 1, 0, 0, 0, 0, 0, 0]>, <169, 20, 34, 14, 13, 0, 1, [1, 1, 0, 0, 0, 0, 0, 0]>, <170, 21, 35, 14, 13, 0, 1, [1, 1, 0, 0, 0, 0, 0, 0]>, <171, 3, 17, 14, 14, 0, 1, [1, 1, 0, 0, 0, 0, 0, 0]>, <172, 4, 18, 14, 14, 0, 1, [1, 1, 0, 0, 0, 0, 0, 0]>, <173, 5, 19, 14, 14, 0, 1, [1, 1, 0, 0, 0, 0, 0, 0]>, <174, 6, 20, 14, 14, 0, 1, [1, 1, 0, 0, 0, 0, 0, 0]>, <175, 12, 26, 14, 14, 0, 1, [1, 1, 0, 0, 0, 0, 0, 0]>, <176, 13, 27, 14, 14, 0, 1, [1, 1, 0, 0, 0, 0, 0, 0]>, <177, 14, 28, 14, 14, 0, 1, [1, 1, 0, 0, 0, 0, 0, 0]>, <178, 15, 29, 14, 14, 0, 1, [1, 1, 0, 0, 0, 0, 0, 0]>, <179, 17, 31, 14, 14, 0, 1, [1, 1, 0, 0, 0, 0, 0, 0]>, <180, 18, 32, 14, 14, 0, 1, [1, 1, 0, 0, 0, 0, 0, 0]>, <181, 19, 33, 14, 14, 0, 1, [1, 1, 0, 0, 0, 0, 0, 0]>, <182, 20, 34, 14, 14, 0, 1, [1, 1, 0, 0, 0, 0, 0, 0]>, <183, 21, 35, 14, 14, 0, 1, [1, 1, 0, 0, 0, 0, 0, 0]>, <184, 4, 17, 13, 15, 0, 1, [0, 0, 0, 0, 0, 1, 1, 0]>, <185, 5, 18, 13, 15, 0, 1, [0, 0, 0, 0, 0, 1, 1, 0]>, <186, 6, 19, 13, 15, 0, 1, [0, 0, 0, 0, 0, 1, 1, 0]>, <187, 13, 26, 13, 15, 0, 1, [0, 0, 0, 0, 0, 1, 1, 0]>, <188, 14, 27, 13, 15, 0, 1, [0, 0, 0, 0, 0, 1, 1, 0]>, <189, 15, 28, 13, 15, 0, 1, [0, 0, 0, 0, 0, 1, 1, 0]>, <190, 18, 31, 13, 15, 0, 1, [0, 0, 0, 0, 0, 1, 1, 0]>, <191, 19, 32, 13, 15, 0, 1, [0, 0, 0, 0, 0, 1, 1, 0]>, <192, 20, 33, 13, 15, 0, 1, [0, 0, 0, 0, 0, 1, 1, 0]>, <193, 21, 34, 13, 15, 0, 1, [0, 0, 0, 0, 0, 1, 1, 0]>, <194, 22, 35, 13, 15, 0, 1, [0, 0, 0, 0, 0, 1, 1, 0]>, <195, 4, 17, 13, 16, 0, 0, [1, 1, 0, 0, 0, 0, 0, 0]>, <196, 5, 18, 13, 16, 0, 0, [1, 1, 0, 0, 0, 0, 0, 0]>, <197, 6, 19, 13, 16, 0, 0, [1, 1, 0, 0, 0, 0, 0, 0]>, <198, 13, 26, 13, 16, 0, 0, [1, 1, 0, 0, 0, 0, 0, 0]>, <199, 14, 27, 13, 16, 0, 0, [1, 1, 0, 0, 0, 0, 0, 0]>, <200, 15, 28, 13, 16, 0, 0, [1, 1, 0, 0, 0, 0, 0, 0]>, <201, 18, 31, 13, 16, 0, 0, [1, 1, 0, 0, 0, 0, 0, 0]>, <202, 19, 32, 13, 16, 0, 0, [1, 1, 0, 0, 0, 0, 0, 0]>, <203, 20, 33, 13, 16, 0, 0, [1, 1, 0, 0, 0, 0, 0, 0]>, <204, 21, 34, 13, 16, 0, 0, [1, 1, 0, 0, 0, 0, 0, 0]>, <205, 22, 35, 13, 16, 0, 0, [1, 1, 0, 0, 0, 0, 0, 0]>, <206, 5, 15, 10, 17, 0, 0, [1, 1, 0, 0, 0, 0, 0, 0]>, <207, 6, 16, 10, 17, 0, 0, [1, 1, 0, 0, 0, 0, 0, 0]>, <208, 14, 24, 10, 17, 0, 0, [1, 1, 0, 0, 0, 0, 0, 0]>, <209, 15, 25, 10, 17, 0, 0, [1, 1, 0, 0, 0, 0, 0, 0]>, <210, 21, 31, 10, 17, 0, 0, [1, 1, 0, 0, 0, 0, 0, 0]>, <211, 22, 32, 10, 17, 0, 0, [1, 1, 0, 0, 0, 0, 0, 0]>, <212, 23, 33, 10, 17, 0, 0, [1, 1, 0, 0, 0, 0, 0, 0]>, <213, 24, 34, 10, 17, 0, 0, [1, 1, 0, 0, 0, 0, 0, 0]>, <214, 5, 16, 11, 18, 0, 0, [0, 0, 0, 0, 0, 0, 1, 1]>, <215, 6, 17, 11, 18, 0, 0, [0, 0, 0, 0, 0, 0, 1, 1]>, <216, 14, 25, 11, 18, 0, 0, [0, 0, 0, 0, 0, 0, 1, 1]>, <217, 15, 26, 11, 18, 0, 0, [0, 0, 0, 0, 0, 0, 1, 1]>, <218, 20, 31, 11, 18, 0, 0, [0, 0, 0, 0, 0, 0, 1, 1]>, <219, 21, 32, 11, 18, 0, 0, [0, 0, 0, 0, 0, 0, 1, 1]>, <220, 22, 33, 11, 18, 0, 0, [0, 0, 0, 0, 0, 0, 1, 1]>, <221, 23, 34, 11, 18, 0, 0, [0, 0, 0, 0, 0, 0, 1, 1]>, <222, 24, 35, 11, 18, 0, 0, [0, 0, 0, 0, 0, 0, 1, 1]>, <223, 5, 14, 9, 19, 0, 0, [1, 1, 0, 0, 0, 0, 0, 0]>, <224, 6, 15, 9, 19, 0, 0, [1, 1, 0, 0, 0, 0, 0, 0]>, <225, 14, 23, 9, 19, 0, 0, [1, 1, 0, 0, 0, 0, 0, 0]>, <226, 15, 24, 9, 19, 0, 0, [1, 1, 0, 0, 0, 0, 0, 0]>, <227, 22, 31, 9, 19, 0, 0, [1, 1, 0, 0, 0, 0, 0, 0]>, <228, 23, 32, 9, 19, 0, 0, [1, 1, 0, 0, 0, 0, 0, 0]>, <229, 24, 33, 9, 19, 0, 0, [1, 1, 0, 0, 0, 0, 0, 0]>, <230, 4, 17, 13, 20, 0, 0, [1, 1, 0, 0, 0, 0, 0, 0]>, <231, 5, 18, 13, 20, 0, 0, [1, 1, 0, 0, 0, 0, 0, 0]>, <232, 6, 19, 13, 20, 0, 0, [1, 1, 0, 0, 0, 0, 0, 0]>, <233, 13, 26, 13, 20, 0, 0, [1, 1, 0, 0, 0, 0, 0, 0]>, <234, 14, 27, 13, 20, 0, 0, [1, 1, 0, 0, 0, 0, 0, 0]>, <235, 15, 28, 13, 20, 0, 0, [1, 1, 0, 0, 0, 0, 0, 0]>, <236, 18, 31, 13, 20, 0, 0, [1, 1, 0, 0, 0, 0, 0, 0]>, <237, 19, 32, 13, 20, 0, 0, [1, 1, 0, 0, 0, 0, 0, 0]>, <238, 20, 33, 13, 20, 0, 0, [1, 1, 0, 0, 0, 0, 0, 0]>, <239, 21, 34, 13, 20, 0, 0, [1, 1, 0, 0, 0, 0, 0, 0]>, <240, 22, 35, 13, 20, 0, 0, [1, 1, 0, 0, 0, 0, 0, 0]>, <241, 5, 17, 12, 21, 1, 0, [0, 0, 1, 1, 0, 0, 0, 0]>, <242, 6, 18, 12, 21, 1, 0, [0, 0, 1, 1, 0, 0, 0, 0]>, <243, 14, 26, 12, 21, 1, 0, [0, 0, 1, 1, 0, 0, 0, 0]>, <244, 15, 27, 12, 21, 1, 0, [0, 0, 1, 1, 0, 0, 0, 0]>, <245, 19, 31, 12, 21, 1, 0, [0, 0, 1, 1, 0, 0, 0, 0]>, <246, 20, 32, 12, 21, 1, 0, [0, 0, 1, 1, 0, 0, 0, 0]>, <247, 21, 33, 12, 21, 1, 0, [0, 0, 1, 1, 0, 0, 0, 0]>, <248, 22, 34, 12, 21, 1, 0, [0, 0, 1, 1, 0, 0, 0, 0]>, <249, 23, 35, 12, 21, 1, 0, [0, 0, 1, 1, 0, 0, 0, 0]>};
